NAME : rnd40_20.tsp
TYPE : TSP
DIMENSION : 20
EDGE_WEIGHT_TYPE : EUC_2D
NODE_COORD_SECTION
1 551 531
2 282 299
3 222 103
4 884 500
5 63 161
6 766 629
7 549 661
8 724 555
9 230 696
10 506 941
11 800 348
12 499 432
13 970 688
14 1000 403
15 850 748
16 286 293
17 81 164
18 665 453
19 159 7
20 916 616
